NumGames = 7;
NumReferees = 20;
NumFields = 2;
game_id = [3674, 3678, 3679, 3696, 3697, 3698, 3699];
game_start = [1110, 720, 900, 720, 795, 870, 1230];
game_end = [1230, 840, 1020, 840, 915, 990, 1350];
difficulty = [3, 2, 2, 1, 1, 1, 1];
game_field = [1, 1, 1, 2, 2, 2, 2];
referee_id = [2777, 3260, 3262, 3263, 3266, 3276, 3475, 3524, 3533, 3614, 3734, 7486, 7496, 7500, 7503, 7506, 7550, 7552, 7565, 7578];
main_exp = [67, 147, 105, 135, 11, 7, 25, 12, 31, 6, 21, 14, 0, 0, 18, 1, 2, 1, 14, 0];
assist_exp = [50, 99, 79, 101, 2, 13, 27, 61, 43, 44, 3, 66, 15, 9, 59, 42, 15, 8, 0, 0];
available_slots = array3d(1..NumReferees, 1..3, 1..2,[
  720,1080, 0,0, 0,0,
  552,1152, 0,0, 0,0,
  0,1440, 0,0, 0,0,
  0,1440, 0,0, 0,0,
  0,1440, 0,0, 0,0,
  900,1140, 0,0, 0,0,
  690,880, 1230,1420, 0,0,
  840,1320, 0,0, 0,0,
  0,1440, 0,0, 0,0,
  0,1020, 0,0, 0,0,
  840,1320, 0,0, 0,0,
  0,1440, 0,0, 0,0,
  0,1440, 0,0, 0,0,
  0,1440, 0,0, 0,0,
  1140,1380, 0,0, 0,0,
  0,1440, 0,0, 0,0,
  0,1440, 0,0, 0,0,
  600,840, 0,0, 0,0,
  0,1440, 0,0, 0,0,
  720,840, 0,0, 0,0,
]);